TCS_Benchmarks/redos_fix/snort3_output_distinct_372_371_21_0.txt
((.|\n|\r)*)(\s*)
((.|\n|\r)*)(([A-Za-z\d_]+)\.[iI][nN][nN][eE][rR][hH][tT][mM][lL])(\s*)